 O Si 
 1.0000000000000000
    13.6750000000000007    0.0000000000000000    0.0000000000000000
    -6.8374999999999977   11.8428973967521998    0.0000000000000000
     0.0000000000000000    0.0000000000000000   14.7669999999999995
  72  36
Cartesian
 11.6647750000000023  1.1606039448817156  1.8119109000000000
  4.8272750000000011  5.1082364104657820  6.7342442333333326
 -2.0102249999999970  9.0558688760498480 11.6565775666666660
  6.8375000000000030  9.5216895069887695  1.8119109000000000
  6.8375000000000004  1.6264245758206350  6.7342442333333326
  0.0000000000000000  5.5740570414047035 11.6565775666666660
  2.0102249999999997  1.1606039448817154  1.8119109000000000
  8.8477250000000005  5.1082364104657820  6.7342442333333326
  2.0102250000000002  9.0558688760498480 11.6565775666666660
 -4.8272749999999984 10.6822934518704837 12.9550890999999986
  8.8477250000000005  2.7870285207023509  3.1104224333333330
  2.0102250000000019  6.7346609862864177  8.0327557666666660
  0.0000000000000009  2.3212078897634307 12.9550890999999986
  6.8375000000000021  6.2688403553474963  3.1104224333333330
  0.0000000000000036 10.2164728209315641  8.0327557666666660
  4.8272750000000038 10.6822934518704837 12.9550890999999986
  4.8272750000000020  2.7870285207023517  3.1104224333333330
 -2.0102249999999993  6.7346609862864177  8.0327557666666660
 11.2360637500000013  3.6724824827328568  2.4616588999999998
  4.3985637500000028  7.6201149483169237  7.3839922333333332
 -2.4389362499999958 11.5677474139009888 12.3063255666666649
  4.8765050000000008  7.8944754046750170  2.4616588999999998
 -1.9609949999999978 11.8421078702590830  7.3839922333333332
 -1.9609950000000005  3.9468429390909514 12.3063255666666649
  4.3999312499999990  0.2759395093443261  2.4616588999999998
 -2.4375687500000009  4.2235719749283929  7.3839922333333332
  4.3999312500000007  8.1712044405124580 12.3063255666666649
  9.2750687500000009  0.2759395093443261  2.4616588999999998
  2.4375687500000005  4.2235719749283929  7.3839922333333332
 -4.3999312499999981  8.1712044405124580 12.3063255666666649
  2.4389362499999998  3.6724824827328568  2.4616588999999998
 -4.3985637499999992  7.6201149483169237  7.3839922333333332
  2.4389362500000020 11.5677474139009888 12.3063255666666649
  8.7984950000000026  7.8944754046750170  2.4616588999999998
  1.9609950000000032 11.8421078702590830  7.3839922333333332
  1.9609950000000009  3.9468429390909514 12.3063255666666649
  0.0006837500000008  2.8482168239189041  1.9418605000000000
  6.8381837500000007  6.7958492895029705  6.8641938333333332
  0.0006837500000021 10.7434817550870374 11.7865271666666658
  4.3705300000000031 10.4193811296625860  1.9418605000000000
  4.3705300000000005  2.5241161984944522  6.8641938333333332
 -2.4669699999999990  6.4717486640785182 11.7865271666666658
 -4.3712137499999990 10.4181968399229099  1.9418605000000000
  9.3037862500000017  2.5229319087547766  6.8641938333333332
  2.4662862500000009  6.4705643743388439 11.7865271666666658
  6.8368162500000018  8.9946805728332961 12.8251395000000006
  6.8368162500000009  1.0994156416651624  2.9804728333333328
 -0.0006837499999990  5.0470481072492284  7.9028061666666654
  2.4669700000000003  1.4235162670896142 12.8251395000000006
  9.3044700000000020  5.3711487326736806  2.9804728333333328
  2.4669700000000025  9.3187811982577475  7.9028061666666654
 11.2087137500000011  1.4247005568292896 12.8251395000000006
  4.3712137500000008  5.3723330224133559  2.9804728333333328
 -2.4662862499999973  9.3199654879974219  7.9028061666666654
 -1.7620237499999993  3.0519146591430415  0.0000000000000000
  5.0754762500000021  6.9995471247271084  4.9223333333333326
 -1.7620237499999964 10.9471795903111744  9.8446666666666651
  5.0754762500000030  8.7909827376091574  0.0000000000000000
  5.0754762499999995  0.8957178064410247  4.9223333333333326
 -1.7620237499999989  4.8433502720250914  9.8446666666666651
  3.5240475000000000  0.0000000000000000  0.0000000000000000
 10.3615475000000004  3.9476324655840664  4.9223333333333326
  3.5240475000000018  7.8952649311681329  9.8446666666666651
 10.1509525000000007  0.0000000000000000  0.0000000000000000
  3.3134525000000004  3.9476324655840664  4.9223333333333326
 -3.5240474999999982  7.8952649311681329  9.8446666666666651
  1.7620237500000007  3.0519146591430415  0.0000000000000000
  8.5995237499999995  6.9995471247271084  4.9223333333333326
  1.7620237500000036 10.9471795903111744  9.8446666666666651
 -5.0754762499999977  8.7909827376091574  0.0000000000000000
  8.5995237500000012  0.8957178064410247  4.9223333333333326
  1.7620237500000013  4.8433502720250914  9.8446666666666651
 12.1228875000000009  2.6812319706246979  1.5520117000000000
  5.2853875000000041  6.6288644362087643  6.4743450333333330
 -1.5521124999999980 10.5764969017928312 11.3966783666666647
  5.2915412500000025  9.1581125569084776  1.5520117000000000
  5.2915412499999999  1.2628476257403431  6.4743450333333330
 -1.5459587500000000  5.2104800913244116 11.3966783666666647
  3.0980712499999994  0.0035528692190253  1.5520117000000000
  9.9355712499999989  3.9511853348030912  6.4743450333333330
  3.0980712500000003  7.8988178003871576 11.3966783666666647
 10.5769287500000022  0.0035528692190253  1.5520117000000000
  3.7394287500000019  3.9511853348030912  6.4743450333333330
 -3.0980712499999976  7.8988178003871576 11.3966783666666647
  1.5521124999999996  2.6812319706246979  1.5520117000000000
  8.3896125000000001  6.6288644362087643  6.4743450333333330
  1.5521124999999998 10.5764969017928312 11.3966783666666647
  8.3834587500000026  9.1581125569084776  1.5520117000000000
  8.3834587500000026  1.2628476257403431  6.4743450333333330
  1.5459587500000000  5.2104800913244116 11.3966783666666647
 -5.2853874999999997  9.1616654261275023 13.2149882999999999
  8.3896124999999984  1.2664004949593684  3.3703216333333330
  1.5521124999999998  5.2140329605434346  8.2926549666666656
  1.5459587500000014  2.6847848398437226 13.2149882999999999
  8.3834587500000044  6.6324173054277882  3.3703216333333330
  1.5459587500000032 10.5800497710118560  8.2926549666666656
  3.7394287500000036 11.8393445275331750 13.2149882999999999
  3.7394287500000036  3.9440795963650404  3.3703216333333330
 -3.0980712499999989  7.8917120619491090  8.2926549666666656
 -3.7394287499999974 11.8393445275331750 13.2149882999999999
  9.9355712500000024  3.9440795963650404  3.3703216333333330
  3.0980712500000012  7.8917120619491090  8.2926549666666656
  5.2853875000000023  9.1616654261275023 13.2149882999999999
  5.2853875000000032  1.2664004949593684  3.3703216333333330
 -1.5521124999999985  5.2140329605434346  8.2926549666666656
 -1.5459587499999994  2.6847848398437226 13.2149882999999999
  5.2915412500000016  6.6324173054277882  3.3703216333333330
 -1.5459587499999987 10.5800497710118560  8.2926549666666656
